NAME : rnd33_50.tsp
TYPE : TSP
DIMENSION : 50
EDGE_WEIGHT_TYPE : EUC_2D
NODE_COORD_SECTION
1 828 853
2 474 287
3 120 308
4 970 592
5 671 809
6 396 860
7 97 861
8 956 222
9 344 0
10 291 128
11 885 314
12 162 733
13 294 226
14 26 68
15 673 700
16 110 568
17 135 346
18 378 86
19 302 97
20 720 39
21 599 71
22 701 443
23 268 863
24 868 521
25 59 433
26 544 882
27 642 21
28 849 742
29 234 826
30 946 860
31 380 732
32 843 695
33 214 309
34 783 354
35 886 189
36 277 124
37 236 442
38 821 537
39 841 149
40 360 766
41 30 228
42 672 662
43 69 188
44 806 744
45 681 499
46 320 959
47 305 143
48 95 476
49 680 453
50 754 278
